
Gurobi 5.6.0 (linux64) logging started Mon Mar  3 13:14:09 2014


Gurobi 5.6.0 (linux64) logging started Mon Mar  3 13:16:00 2014


Gurobi 5.6.0 (linux64) logging started Mon Mar  3 13:23:13 2014


Gurobi 5.6.0 (linux64) logging started Mon Mar  3 13:23:29 2014


Gurobi 5.6.0 (linux64) logging started Mon Mar  3 13:24:19 2014


Gurobi 5.6.0 (linux64) logging started Mon Mar  3 13:31:06 2014


Gurobi 5.6.0 (linux64) logging started Mon Mar  3 13:34:26 2014


Gurobi 5.6.0 (linux64) logging started Mon Mar  3 13:36:21 2014


Gurobi 5.6.0 (linux64) logging started Mon Mar  3 13:43:21 2014


Gurobi 5.6.0 (linux64) logging started Mon Mar  3 14:09:18 2014

